200
[40,41,42,43,44,45,46,47,48,49,50,51,52,53,54,55,56,57,58,59,60,61,62,63,64,65,66,67,68,69,70,71,72,73,74,75,76,77,78,79,80,81,82,83,84,85,86,87,88,89,90,91,92,93,94,95,96,97,98,99,100,101,102,103,104,105,106,107,108,109,110,111,112,113,114,115,116,117,118,119,120,121,122,123,124,125,126,127,128,129,130,131,132,133,134,135,136,137,138,139,140]
[6,14,8,7,6,11,10,11,9,14,11,10,8,9,15,20,6,15,10,11,8,9,15,8,11,12,9,8,5,8,4,4,6,10,9,15,6,12,9,15,7,12,11,4,14,9,9,8,18,10,11,11,12,14,10,14,12,11,5,8,10,12,6,10,11,6,6,9,8,9,9,11,10,10,7,10,9,5,11,11,15,6,6,16,7,15,16,15,12,11,7,13,10,6,9,6,10,7,11,10,8]
